c Reduced graph for miles500_2 generated by Cyril Grelier
p edge 61 688
e 1 2
e 1 4
e 1 9
e 1 10
e 1 16
e 1 17
e 1 20
e 1 22
e 1 23
e 1 24
e 1 25
e 1 26
e 1 30
e 1 31
e 1 33
e 1 34
e 1 35
e 1 37
e 1 38
e 1 39
e 1 40
e 1 41
e 1 42
e 1 44
e 1 47
e 1 48
e 1 49
e 1 51
e 1 53
e 1 54
e 1 55
e 1 56
e 1 58
e 1 59
e 1 60
e 2 9
e 2 11
e 2 16
e 2 17
e 2 18
e 2 20
e 2 22
e 2 23
e 2 24
e 2 26
e 2 30
e 2 31
e 2 33
e 2 34
e 2 37
e 2 38
e 2 39
e 2 40
e 2 41
e 2 42
e 2 43
e 2 44
e 2 47
e 2 48
e 2 49
e 2 51
e 2 53
e 2 54
e 2 55
e 2 56
e 2 58
e 2 59
e 3 4
e 3 10
e 3 12
e 3 13
e 3 19
e 3 21
e 3 23
e 3 25
e 3 29
e 3 32
e 3 35
e 3 36
e 3 37
e 3 41
e 3 45
e 3 46
e 3 49
e 3 50
e 3 51
e 3 52
e 3 57
e 3 61
e 4 10
e 4 22
e 4 23
e 4 25
e 4 35
e 4 37
e 4 40
e 4 41
e 4 45
e 4 46
e 4 49
e 4 51
e 4 52
e 4 53
e 4 54
e 4 55
e 4 57
e 4 60
e 4 61
e 5 6
e 5 7
e 5 8
e 5 13
e 5 19
e 5 27
e 5 28
e 5 36
e 5 50
e 6 7
e 6 8
e 6 27
e 6 28
e 7 27
e 8 28
e 9 11
e 9 16
e 9 17
e 9 18
e 9 20
e 9 22
e 9 23
e 9 24
e 9 26
e 9 30
e 9 31
e 9 33
e 9 34
e 9 37
e 9 38
e 9 39
e 9 40
e 9 42
e 9 43
e 9 44
e 9 47
e 9 48
e 9 51
e 9 53
e 9 54
e 9 56
e 9 58
e 9 59
e 9 60
e 10 21
e 10 22
e 10 23
e 10 25
e 10 29
e 10 32
e 10 35
e 10 36
e 10 37
e 10 41
e 10 45
e 10 46
e 10 49
e 10 51
e 10 52
e 10 53
e 10 54
e 10 55
e 10 57
e 10 60
e 10 61
e 11 14
e 11 17
e 11 18
e 11 20
e 11 26
e 11 33
e 11 42
e 11 43
e 11 55
e 11 58
e 12 13
e 12 19
e 12 21
e 12 29
e 12 32
e 12 46
e 12 50
e 12 52
e 12 61
e 13 19
e 13 21
e 13 28
e 13 32
e 13 50
e 13 61
e 14 15
e 14 18
e 14 42
e 14 43
e 14 55
e 15 36
e 15 45
e 16 17
e 16 20
e 16 22
e 16 23
e 16 24
e 16 26
e 16 30
e 16 31
e 16 33
e 16 34
e 16 37
e 16 38
e 16 39
e 16 40
e 16 41
e 16 44
e 16 47
e 16 48
e 16 51
e 16 53
e 16 54
e 16 56
e 16 58
e 16 59
e 16 60
e 17 18
e 17 20
e 17 22
e 17 23
e 17 24
e 17 26
e 17 30
e 17 33
e 17 34
e 17 37
e 17 38
e 17 39
e 17 40
e 17 42
e 17 43
e 17 47
e 17 53
e 17 54
e 17 55
e 17 56
e 17 58
e 17 59
e 18 20
e 18 22
e 18 25
e 18 26
e 18 30
e 18 33
e 18 37
e 18 42
e 18 43
e 18 49
e 18 53
e 18 54
e 18 55
e 18 58
e 18 59
e 19 21
e 19 27
e 19 28
e 19 29
e 19 32
e 19 46
e 19 50
e 19 52
e 19 61
e 20 22
e 20 23
e 20 24
e 20 25
e 20 26
e 20 30
e 20 31
e 20 33
e 20 34
e 20 37
e 20 38
e 20 39
e 20 40
e 20 41
e 20 42
e 20 43
e 20 44
e 20 47
e 20 48
e 20 49
e 20 51
e 20 53
e 20 54
e 20 55
e 20 56
e 20 58
e 20 59
e 20 60
e 21 29
e 21 32
e 21 35
e 21 36
e 21 46
e 21 50
e 21 52
e 21 61
e 22 23
e 22 24
e 22 25
e 22 26
e 22 30
e 22 31
e 22 33
e 22 34
e 22 35
e 22 37
e 22 38
e 22 39
e 22 40
e 22 41
e 22 42
e 22 43
e 22 45
e 22 49
e 22 51
e 22 52
e 22 53
e 22 54
e 22 55
e 22 56
e 22 57
e 22 58
e 22 59
e 22 60
e 23 24
e 23 25
e 23 26
e 23 30
e 23 31
e 23 33
e 23 34
e 23 35
e 23 37
e 23 38
e 23 39
e 23 40
e 23 41
e 23 42
e 23 45
e 23 49
e 23 51
e 23 52
e 23 53
e 23 54
e 23 55
e 23 57
e 23 58
e 23 59
e 23 60
e 24 26
e 24 30
e 24 31
e 24 33
e 24 34
e 24 37
e 24 38
e 24 39
e 24 40
e 24 42
e 24 43
e 24 44
e 24 47
e 24 48
e 24 51
e 24 53
e 24 54
e 24 56
e 24 58
e 24 59
e 24 60
e 25 26
e 25 30
e 25 35
e 25 36
e 25 37
e 25 40
e 25 41
e 25 42
e 25 45
e 25 46
e 25 49
e 25 50
e 25 51
e 25 52
e 25 53
e 25 54
e 25 55
e 25 57
e 25 60
e 25 61
e 26 30
e 26 33
e 26 34
e 26 37
e 26 38
e 26 39
e 26 40
e 26 41
e 26 42
e 26 43
e 26 49
e 26 51
e 26 53
e 26 54
e 26 55
e 26 56
e 26 58
e 26 59
e 27 28
e 27 32
e 27 36
e 27 45
e 27 46
e 27 50
e 27 57
e 28 32
e 28 36
e 28 46
e 28 50
e 29 32
e 29 35
e 29 46
e 29 52
e 29 61
e 30 31
e 30 33
e 30 34
e 30 37
e 30 38
e 30 39
e 30 40
e 30 41
e 30 42
e 30 43
e 30 44
e 30 47
e 30 48
e 30 49
e 30 51
e 30 53
e 30 54
e 30 56
e 30 58
e 30 59
e 30 60
e 31 33
e 31 34
e 31 37
e 31 38
e 31 39
e 31 40
e 31 44
e 31 47
e 31 48
e 31 51
e 31 53
e 31 54
e 31 56
e 31 58
e 31 59
e 31 60
e 32 35
e 32 36
e 32 45
e 32 46
e 32 50
e 32 52
e 32 57
e 32 61
e 33 34
e 33 37
e 33 38
e 33 39
e 33 40
e 33 41
e 33 42
e 33 43
e 33 44
e 33 47
e 33 48
e 33 49
e 33 51
e 33 53
e 33 54
e 33 56
e 33 58
e 33 59
e 33 60
e 34 37
e 34 38
e 34 39
e 34 40
e 34 44
e 34 47
e 34 48
e 34 51
e 34 53
e 34 54
e 34 56
e 34 58
e 34 59
e 34 60
e 35 36
e 35 37
e 35 41
e 35 45
e 35 46
e 35 49
e 35 51
e 35 52
e 35 53
e 35 54
e 35 55
e 35 57
e 35 60
e 35 61
e 36 41
e 36 45
e 36 46
e 36 49
e 36 50
e 36 51
e 36 52
e 36 57
e 36 61
e 37 38
e 37 39
e 37 40
e 37 41
e 37 42
e 37 45
e 37 49
e 37 51
e 37 52
e 37 53
e 37 54
e 37 55
e 37 57
e 37 58
e 37 59
e 37 60
e 38 39
e 38 40
e 38 41
e 38 42
e 38 43
e 38 44
e 38 47
e 38 48
e 38 51
e 38 53
e 38 54
e 38 56
e 38 58
e 38 59
e 38 60
e 39 40
e 39 44
e 39 47
e 39 48
e 39 54
e 39 56
e 39 58
e 39 59
e 39 60
e 40 41
e 40 44
e 40 47
e 40 48
e 40 49
e 40 51
e 40 53
e 40 54
e 40 56
e 40 58
e 40 59
e 40 60
e 41 42
e 41 45
e 41 46
e 41 49
e 41 51
e 41 52
e 41 53
e 41 54
e 41 55
e 41 57
e 41 60
e 41 61
e 42 43
e 42 49
e 42 51
e 42 53
e 42 54
e 42 55
e 42 58
e 42 59
e 43 53
e 43 54
e 43 55
e 43 58
e 43 59
e 44 47
e 44 48
e 44 56
e 44 58
e 44 59
e 45 46
e 45 49
e 45 50
e 45 51
e 45 52
e 45 53
e 45 54
e 45 55
e 45 57
e 45 61
e 46 49
e 46 50
e 46 51
e 46 52
e 46 53
e 46 57
e 46 61
e 47 48
e 47 56
e 47 58
e 47 59
e 47 60
e 48 56
e 48 58
e 48 59
e 48 60
e 49 51
e 49 52
e 49 53
e 49 54
e 49 55
e 49 57
e 49 60
e 49 61
e 50 52
e 50 57
e 51 52
e 51 53
e 51 54
e 51 55
e 51 57
e 51 60
e 51 61
e 52 53
e 52 57
e 52 61
e 53 54
e 53 55
e 53 57
e 53 58
e 53 59
e 53 60
e 54 55
e 54 56
e 54 57
e 54 58
e 54 59
e 54 60
e 55 57
e 56 58
e 56 59
e 56 60
e 57 61
e 58 59
e 59 60
